NAME : rat99.tsp
COMMENT : Optimal tour for rat99.tsp
TYPE : TOUR
DIMENSION : 99
Total Length: 1306.620431589924
TOUR_SECTION
1
2
10
11
12
3
4
14
5
6
7
8
9
18
27
35
36
45
54
53
63
62
61
60
49
58
59
67
68
69
70
71
72
81
80
79
78
77
85
86
87
88
89
90
99
98
97
96
95
94
93
92
91
82
83
84
76
75
73
74
66
65
64
56
57
55
46
47
38
48
39
40
50
51
52
44
34
43
42
33
41
32
31
30
29
37
28
19
20
21
22
23
24
25
26
17
16
15
13
-1
EOF
